\ Model M
\ LP format - for model browsing. Use MPS format to capture full model detail.
Maximize
  0.3333333333333333 X_1_1 + 0.3333333333333333 X_1_2
   + 0.6666666666666666 X_1_3 + 0.3333333333333333 X_2_1
   + 0.3333333333333333 X_2_2 + 0.6666666666666666 X_2_3
   + 0.3333333333333333 X_2_4 + 0.6666666666666666 X_2_5
   + 0.6666666666666666 X_2_6 + X_2_7 + 0.3333333333333333 X_3_1
   + 0.3333333333333333 X_3_2 + 0.6666666666666666 X_3_3
   + 0.3333333333333333 X_3_4 + 0.6666666666666666 X_3_5
   + 0.6666666666666666 X_3_6 + X_3_7
Subject To
 C_1_1: X_1_1 + X_1_2 + X_1_3 = 1
 C_1_2: X_2_1 + X_2_2 + X_2_3 + X_2_4 + X_2_5 + X_2_6 + X_2_7 = 1
 C_1_3: X_3_1 + X_3_2 + X_3_3 + X_3_4 + X_3_5 + X_3_6 + X_3_7 = 1
 C_2_(1-1-2)_(2-1-3): 1e+07 X_1_1 + 1e+07 X_2_1 - B_1_2 <= 1.9999993e+07
 C_2_(1-1-2)_(2-2-2): 1e+07 X_1_1 + 1e+07 X_2_2 - B_1_2 <= 1.9999995e+07
 C_2_(1-1-2)_(2-3-2): 1e+07 X_1_1 + 1e+07 X_2_3 - B_1_2 <= 1.9999995e+07
 C_2_(1-1-2)_(2-3-3): 1e+07 X_1_1 + 1e+07 X_2_3 - B_1_2 <= 1.9999993e+07
 C_2_(1-1-2)_(2-4-1): 1e+07 X_1_1 + 1e+07 X_2_4 - B_1_2 <= 1.9999997e+07
 C_2_(1-1-2)_(2-5-1): 1e+07 X_1_1 + 1e+07 X_2_5 - B_1_2 <= 1.9999997e+07
 C_2_(1-1-2)_(2-5-3): 1e+07 X_1_1 + 1e+07 X_2_5 - B_1_2 <= 1.9999993e+07
 C_2_(1-1-2)_(2-6-1): 1e+07 X_1_1 + 1e+07 X_2_6 - B_1_2 <= 1.9999997e+07
 C_2_(1-1-2)_(2-6-2): 1e+07 X_1_1 + 1e+07 X_2_6 - B_1_2 <= 1.9999995e+07
 C_2_(1-1-2)_(2-7-1): 1e+07 X_1_1 + 1e+07 X_2_7 - B_1_2 <= 1.9999997e+07
 C_2_(1-1-2)_(2-7-2): 1e+07 X_1_1 + 1e+07 X_2_7 - B_1_2 <= 1.9999995e+07
 C_2_(1-1-2)_(2-7-3): 1e+07 X_1_1 + 1e+07 X_2_7 - B_1_2 <= 1.9999993e+07
 C_2_(1-2-1)_(2-1-3): 1e+07 X_1_2 + 1e+07 X_2_1 - B_1_2 <= 1.9999996e+07
 C_2_(1-2-1)_(2-2-2): 1e+07 X_1_2 + 1e+07 X_2_2 - B_1_2 <= 1.9999992e+07
 C_2_(1-2-1)_(2-3-3): 1e+07 X_1_2 + 1e+07 X_2_3 - B_1_2 <= 1.9999996e+07
 C_2_(1-2-1)_(2-3-2): 1e+07 X_1_2 + 1e+07 X_2_3 - B_1_2 <= 1.9999992e+07
 C_2_(1-2-1)_(2-4-1): 1e+07 X_1_2 + 1e+07 X_2_4 - B_1_2 <= 1.9999994e+07
 C_2_(1-2-1)_(2-5-3): 1e+07 X_1_2 + 1e+07 X_2_5 - B_1_2 <= 1.9999996e+07
 C_2_(1-2-1)_(2-5-1): 1e+07 X_1_2 + 1e+07 X_2_5 - B_1_2 <= 1.9999994e+07
 C_2_(1-2-1)_(2-6-1): 1e+07 X_1_2 + 1e+07 X_2_6 - B_1_2 <= 1.9999994e+07
 C_2_(1-2-1)_(2-6-2): 1e+07 X_1_2 + 1e+07 X_2_6 - B_1_2 <= 1.9999992e+07
 C_2_(1-2-1)_(2-7-3): 1e+07 X_1_2 + 1e+07 X_2_7 - B_1_2 <= 1.9999996e+07
 C_2_(1-2-1)_(2-7-1): 1e+07 X_1_2 + 1e+07 X_2_7 - B_1_2 <= 1.9999994e+07
 C_2_(1-2-1)_(2-7-2): 1e+07 X_1_2 + 1e+07 X_2_7 - B_1_2 <= 1.9999992e+07
 C_2_(1-3-1)_(2-1-3): 1e+07 X_1_3 + 1e+07 X_2_1 - B_1_2 <= 1.9999996e+07
 C_2_(1-3-2)_(2-2-2): 1e+07 X_1_3 + 1e+07 X_2_2 - B_1_2 <= 1.9999995e+07
 C_2_(1-3-1)_(2-3-3): 1e+07 X_1_3 + 1e+07 X_2_3 - B_1_2 <= 1.9999996e+07
 C_2_(1-3-2)_(2-3-2): 1e+07 X_1_3 + 1e+07 X_2_3 - B_1_2 <= 1.9999995e+07
 C_2_(1-3-2)_(2-4-1): 1e+07 X_1_3 + 1e+07 X_2_4 - B_1_2 <= 1.9999997e+07
 C_2_(1-3-1)_(2-5-3): 1e+07 X_1_3 + 1e+07 X_2_5 - B_1_2 <= 1.9999996e+07
 C_2_(1-3-2)_(2-5-1): 1e+07 X_1_3 + 1e+07 X_2_5 - B_1_2 <= 1.9999997e+07
 C_2_(1-3-2)_(2-6-1): 1e+07 X_1_3 + 1e+07 X_2_6 - B_1_2 <= 1.9999997e+07
 C_2_(1-3-2)_(2-6-2): 1e+07 X_1_3 + 1e+07 X_2_6 - B_1_2 <= 1.9999995e+07
 C_2_(1-3-1)_(2-7-3): 1e+07 X_1_3 + 1e+07 X_2_7 - B_1_2 <= 1.9999996e+07
 C_2_(1-3-2)_(2-7-1): 1e+07 X_1_3 + 1e+07 X_2_7 - B_1_2 <= 1.9999997e+07
 C_2_(1-3-2)_(2-7-2): 1e+07 X_1_3 + 1e+07 X_2_7 - B_1_2 <= 1.9999995e+07
 C_2_(1-1-2)_(3-1-3): 1e+07 X_1_1 + 1e+07 X_3_1 - B_1_3 <= 1.9999993e+07
 C_2_(1-1-2)_(3-2-2): 1e+07 X_1_1 + 1e+07 X_3_2 - B_1_3 <= 1.9999995e+07
 C_2_(1-1-2)_(3-3-2): 1e+07 X_1_1 + 1e+07 X_3_3 - B_1_3 <= 1.9999995e+07
 C_2_(1-1-2)_(3-3-3): 1e+07 X_1_1 + 1e+07 X_3_3 - B_1_3 <= 1.9999993e+07
 C_2_(1-1-2)_(3-4-1): 1e+07 X_1_1 + 1e+07 X_3_4 - B_1_3 <= 1.9999997e+07
 C_2_(1-1-2)_(3-5-1): 1e+07 X_1_1 + 1e+07 X_3_5 - B_1_3 <= 1.9999997e+07
 C_2_(1-1-2)_(3-5-3): 1e+07 X_1_1 + 1e+07 X_3_5 - B_1_3 <= 1.9999993e+07
 C_2_(1-1-2)_(3-6-1): 1e+07 X_1_1 + 1e+07 X_3_6 - B_1_3 <= 1.9999997e+07
 C_2_(1-1-2)_(3-6-2): 1e+07 X_1_1 + 1e+07 X_3_6 - B_1_3 <= 1.9999995e+07
 C_2_(1-1-2)_(3-7-1): 1e+07 X_1_1 + 1e+07 X_3_7 - B_1_3 <= 1.9999997e+07
 C_2_(1-1-2)_(3-7-2): 1e+07 X_1_1 + 1e+07 X_3_7 - B_1_3 <= 1.9999995e+07
 C_2_(1-1-2)_(3-7-3): 1e+07 X_1_1 + 1e+07 X_3_7 - B_1_3 <= 1.9999993e+07
 C_2_(1-2-1)_(3-1-3): 1e+07 X_1_2 + 1e+07 X_3_1 - B_1_3 <= 1.9999996e+07
 C_2_(1-2-1)_(3-2-2): 1e+07 X_1_2 + 1e+07 X_3_2 - B_1_3 <= 1.9999992e+07
 C_2_(1-2-1)_(3-3-3): 1e+07 X_1_2 + 1e+07 X_3_3 - B_1_3 <= 1.9999996e+07
 C_2_(1-2-1)_(3-3-2): 1e+07 X_1_2 + 1e+07 X_3_3 - B_1_3 <= 1.9999992e+07
 C_2_(1-2-1)_(3-4-1): 1e+07 X_1_2 + 1e+07 X_3_4 - B_1_3 <= 1.9999994e+07
 C_2_(1-2-1)_(3-5-3): 1e+07 X_1_2 + 1e+07 X_3_5 - B_1_3 <= 1.9999996e+07
 C_2_(1-2-1)_(3-5-1): 1e+07 X_1_2 + 1e+07 X_3_5 - B_1_3 <= 1.9999994e+07
 C_2_(1-2-1)_(3-6-1): 1e+07 X_1_2 + 1e+07 X_3_6 - B_1_3 <= 1.9999994e+07
 C_2_(1-2-1)_(3-6-2): 1e+07 X_1_2 + 1e+07 X_3_6 - B_1_3 <= 1.9999992e+07
 C_2_(1-2-1)_(3-7-3): 1e+07 X_1_2 + 1e+07 X_3_7 - B_1_3 <= 1.9999996e+07
 C_2_(1-2-1)_(3-7-1): 1e+07 X_1_2 + 1e+07 X_3_7 - B_1_3 <= 1.9999994e+07
 C_2_(1-2-1)_(3-7-2): 1e+07 X_1_2 + 1e+07 X_3_7 - B_1_3 <= 1.9999992e+07
 C_2_(1-3-1)_(3-1-3): 1e+07 X_1_3 + 1e+07 X_3_1 - B_1_3 <= 1.9999996e+07
 C_2_(1-3-2)_(3-2-2): 1e+07 X_1_3 + 1e+07 X_3_2 - B_1_3 <= 1.9999995e+07
 C_2_(1-3-1)_(3-3-3): 1e+07 X_1_3 + 1e+07 X_3_3 - B_1_3 <= 1.9999996e+07
 C_2_(1-3-2)_(3-3-2): 1e+07 X_1_3 + 1e+07 X_3_3 - B_1_3 <= 1.9999995e+07
 C_2_(1-3-2)_(3-4-1): 1e+07 X_1_3 + 1e+07 X_3_4 - B_1_3 <= 1.9999997e+07
 C_2_(1-3-1)_(3-5-3): 1e+07 X_1_3 + 1e+07 X_3_5 - B_1_3 <= 1.9999996e+07
 C_2_(1-3-2)_(3-5-1): 1e+07 X_1_3 + 1e+07 X_3_5 - B_1_3 <= 1.9999997e+07
 C_2_(1-3-2)_(3-6-1): 1e+07 X_1_3 + 1e+07 X_3_6 - B_1_3 <= 1.9999997e+07
 C_2_(1-3-2)_(3-6-2): 1e+07 X_1_3 + 1e+07 X_3_6 - B_1_3 <= 1.9999995e+07
 C_2_(1-3-1)_(3-7-3): 1e+07 X_1_3 + 1e+07 X_3_7 - B_1_3 <= 1.9999996e+07
 C_2_(1-3-2)_(3-7-1): 1e+07 X_1_3 + 1e+07 X_3_7 - B_1_3 <= 1.9999997e+07
 C_2_(1-3-2)_(3-7-2): 1e+07 X_1_3 + 1e+07 X_3_7 - B_1_3 <= 1.9999995e+07
 C_2_(2-1-3)_(3-1-3): 1e+07 X_2_1 + 1e+07 X_3_1 - B_2_3 <= 1.9999994e+07
 C_2_(2-1-3)_(3-2-2): 1e+07 X_2_1 + 1e+07 X_3_2 - B_2_3 <= 1.9999996e+07
 C_2_(2-1-3)_(3-3-2): 1e+07 X_2_1 + 1e+07 X_3_3 - B_2_3 <= 1.9999996e+07
 C_2_(2-1-3)_(3-3-3): 1e+07 X_2_1 + 1e+07 X_3_3 - B_2_3 <= 1.9999994e+07
 C_2_(2-1-3)_(3-4-1): 1e+07 X_2_1 + 1e+07 X_3_4 - B_2_3 <= 1.9999998e+07
 C_2_(2-1-3)_(3-5-1): 1e+07 X_2_1 + 1e+07 X_3_5 - B_2_3 <= 1.9999998e+07
 C_2_(2-1-3)_(3-5-3): 1e+07 X_2_1 + 1e+07 X_3_5 - B_2_3 <= 1.9999994e+07
 C_2_(2-1-3)_(3-6-1): 1e+07 X_2_1 + 1e+07 X_3_6 - B_2_3 <= 1.9999998e+07
 C_2_(2-1-3)_(3-6-2): 1e+07 X_2_1 + 1e+07 X_3_6 - B_2_3 <= 1.9999996e+07
 C_2_(2-1-3)_(3-7-1): 1e+07 X_2_1 + 1e+07 X_3_7 - B_2_3 <= 1.9999998e+07
 C_2_(2-1-3)_(3-7-2): 1e+07 X_2_1 + 1e+07 X_3_7 - B_2_3 <= 1.9999996e+07
 C_2_(2-1-3)_(3-7-3): 1e+07 X_2_1 + 1e+07 X_3_7 - B_2_3 <= 1.9999994e+07
 C_2_(2-2-2)_(3-1-3): 1e+07 X_2_2 + 1e+07 X_3_1 - B_2_3 <= 1.9999992e+07
 C_2_(2-2-2)_(3-2-2): 1e+07 X_2_2 + 1e+07 X_3_2 - B_2_3 <= 1.9999994e+07
 C_2_(2-2-2)_(3-3-2): 1e+07 X_2_2 + 1e+07 X_3_3 - B_2_3 <= 1.9999994e+07
 C_2_(2-2-2)_(3-3-3): 1e+07 X_2_2 + 1e+07 X_3_3 - B_2_3 <= 1.9999992e+07
 C_2_(2-2-2)_(3-4-1): 1e+07 X_2_2 + 1e+07 X_3_4 - B_2_3 <= 1.9999996e+07
 C_2_(2-2-2)_(3-5-1): 1e+07 X_2_2 + 1e+07 X_3_5 - B_2_3 <= 1.9999996e+07
 C_2_(2-2-2)_(3-5-3): 1e+07 X_2_2 + 1e+07 X_3_5 - B_2_3 <= 1.9999992e+07
 C_2_(2-2-2)_(3-6-1): 1e+07 X_2_2 + 1e+07 X_3_6 - B_2_3 <= 1.9999996e+07
 C_2_(2-2-2)_(3-6-2): 1e+07 X_2_2 + 1e+07 X_3_6 - B_2_3 <= 1.9999994e+07
 C_2_(2-2-2)_(3-7-1): 1e+07 X_2_2 + 1e+07 X_3_7 - B_2_3 <= 1.9999996e+07
 C_2_(2-2-2)_(3-7-2): 1e+07 X_2_2 + 1e+07 X_3_7 - B_2_3 <= 1.9999994e+07
 C_2_(2-2-2)_(3-7-3): 1e+07 X_2_2 + 1e+07 X_3_7 - B_2_3 <= 1.9999992e+07
 C_2_(2-3-2)_(3-1-3): 1e+07 X_2_3 + 1e+07 X_3_1 - B_2_3 <= 1.9999998e+07
 C_2_(2-3-3)_(3-2-2): 1e+07 X_2_3 + 1e+07 X_3_2 - B_2_3 <= 1.9999996e+07
 C_2_(2-3-2)_(3-3-3): 1e+07 X_2_3 + 1e+07 X_3_3 - B_2_3 <= 1.9999998e+07
 C_2_(2-3-3)_(3-3-2): 1e+07 X_2_3 + 1e+07 X_3_3 - B_2_3 <= 1.9999996e+07
 C_2_(2-3-3)_(3-4-1): 1e+07 X_2_3 + 1e+07 X_3_4 - B_2_3 <= 1.9999998e+07
 C_2_(2-3-2)_(3-5-3): 1e+07 X_2_3 + 1e+07 X_3_5 - B_2_3 <= 1.9999998e+07
 C_2_(2-3-3)_(3-5-1): 1e+07 X_2_3 + 1e+07 X_3_5 - B_2_3 <= 1.9999998e+07
 C_2_(2-3-3)_(3-6-1): 1e+07 X_2_3 + 1e+07 X_3_6 - B_2_3 <= 1.9999998e+07
 C_2_(2-3-3)_(3-6-2): 1e+07 X_2_3 + 1e+07 X_3_6 - B_2_3 <= 1.9999996e+07
 C_2_(2-3-2)_(3-7-3): 1e+07 X_2_3 + 1e+07 X_3_7 - B_2_3 <= 1.9999998e+07
 C_2_(2-3-3)_(3-7-1): 1e+07 X_2_3 + 1e+07 X_3_7 - B_2_3 <= 1.9999998e+07
 C_2_(2-3-3)_(3-7-2): 1e+07 X_2_3 + 1e+07 X_3_7 - B_2_3 <= 1.9999996e+07
 C_2_(2-4-1)_(3-1-3): 1e+07 X_2_4 + 1e+07 X_3_1 - B_2_3 <= 1.9999996e+07
 C_2_(2-4-1)_(3-2-2): 1e+07 X_2_4 + 1e+07 X_3_2 - B_2_3 <= 1.9999992e+07
 C_2_(2-4-1)_(3-3-3): 1e+07 X_2_4 + 1e+07 X_3_3 - B_2_3 <= 1.9999996e+07
 C_2_(2-4-1)_(3-3-2): 1e+07 X_2_4 + 1e+07 X_3_3 - B_2_3 <= 1.9999992e+07
 C_2_(2-4-1)_(3-4-1): 1e+07 X_2_4 + 1e+07 X_3_4 - B_2_3 <= 1.9999994e+07
 C_2_(2-4-1)_(3-5-3): 1e+07 X_2_4 + 1e+07 X_3_5 - B_2_3 <= 1.9999996e+07
 C_2_(2-4-1)_(3-5-1): 1e+07 X_2_4 + 1e+07 X_3_5 - B_2_3 <= 1.9999994e+07
 C_2_(2-4-1)_(3-6-1): 1e+07 X_2_4 + 1e+07 X_3_6 - B_2_3 <= 1.9999994e+07
 C_2_(2-4-1)_(3-6-2): 1e+07 X_2_4 + 1e+07 X_3_6 - B_2_3 <= 1.9999992e+07
 C_2_(2-4-1)_(3-7-3): 1e+07 X_2_4 + 1e+07 X_3_7 - B_2_3 <= 1.9999996e+07
 C_2_(2-4-1)_(3-7-1): 1e+07 X_2_4 + 1e+07 X_3_7 - B_2_3 <= 1.9999994e+07
 C_2_(2-4-1)_(3-7-2): 1e+07 X_2_4 + 1e+07 X_3_7 - B_2_3 <= 1.9999992e+07
 C_2_(2-5-1)_(3-1-3): 1e+07 X_2_5 + 1e+07 X_3_1 - B_2_3 <= 1.9999996e+07
 C_2_(2-5-3)_(3-2-2): 1e+07 X_2_5 + 1e+07 X_3_2 - B_2_3 <= 1.9999996e+07
 C_2_(2-5-1)_(3-3-3): 1e+07 X_2_5 + 1e+07 X_3_3 - B_2_3 <= 1.9999996e+07
 C_2_(2-5-3)_(3-3-2): 1e+07 X_2_5 + 1e+07 X_3_3 - B_2_3 <= 1.9999996e+07
 C_2_(2-5-3)_(3-4-1): 1e+07 X_2_5 + 1e+07 X_3_4 - B_2_3 <= 1.9999998e+07
 C_2_(2-5-1)_(3-5-3): 1e+07 X_2_5 + 1e+07 X_3_5 - B_2_3 <= 1.9999996e+07
 C_2_(2-5-3)_(3-5-1): 1e+07 X_2_5 + 1e+07 X_3_5 - B_2_3 <= 1.9999998e+07
 C_2_(2-5-3)_(3-6-1): 1e+07 X_2_5 + 1e+07 X_3_6 - B_2_3 <= 1.9999998e+07
 C_2_(2-5-3)_(3-6-2): 1e+07 X_2_5 + 1e+07 X_3_6 - B_2_3 <= 1.9999996e+07
 C_2_(2-5-1)_(3-7-3): 1e+07 X_2_5 + 1e+07 X_3_7 - B_2_3 <= 1.9999996e+07
 C_2_(2-5-3)_(3-7-1): 1e+07 X_2_5 + 1e+07 X_3_7 - B_2_3 <= 1.9999998e+07
 C_2_(2-5-3)_(3-7-2): 1e+07 X_2_5 + 1e+07 X_3_7 - B_2_3 <= 1.9999996e+07
 C_2_(2-6-1)_(3-1-3): 1e+07 X_2_6 + 1e+07 X_3_1 - B_2_3 <= 1.9999996e+07
 C_2_(2-6-1)_(3-2-2): 1e+07 X_2_6 + 1e+07 X_3_2 - B_2_3 <= 1.9999998e+07
 C_2_(2-6-1)_(3-3-2): 1e+07 X_2_6 + 1e+07 X_3_3 - B_2_3 <= 1.9999998e+07
 C_2_(2-6-1)_(3-3-3): 1e+07 X_2_6 + 1e+07 X_3_3 - B_2_3 <= 1.9999996e+07
 C_2_(2-6-2)_(3-4-1): 1e+07 X_2_6 + 1e+07 X_3_4 - B_2_3 <= 1.9999996e+07
 C_2_(2-6-1)_(3-5-3): 1e+07 X_2_6 + 1e+07 X_3_5 - B_2_3 <= 1.9999996e+07
 C_2_(2-6-2)_(3-5-1): 1e+07 X_2_6 + 1e+07 X_3_5 - B_2_3 <= 1.9999996e+07
 C_2_(2-6-1)_(3-6-2): 1e+07 X_2_6 + 1e+07 X_3_6 - B_2_3 <= 1.9999998e+07
 C_2_(2-6-2)_(3-6-1): 1e+07 X_2_6 + 1e+07 X_3_6 - B_2_3 <= 1.9999996e+07
 C_2_(2-6-1)_(3-7-2): 1e+07 X_2_6 + 1e+07 X_3_7 - B_2_3 <= 1.9999998e+07
 C_2_(2-6-1)_(3-7-3): 1e+07 X_2_6 + 1e+07 X_3_7 - B_2_3 <= 1.9999996e+07
 C_2_(2-6-2)_(3-7-1): 1e+07 X_2_6 + 1e+07 X_3_7 - B_2_3 <= 1.9999996e+07
 C_2_(2-7-2)_(3-1-3): 1e+07 X_2_7 + 1e+07 X_3_1 - B_2_3 <= 1.9999998e+07
 C_2_(2-7-1)_(3-2-2): 1e+07 X_2_7 + 1e+07 X_3_2 - B_2_3 <= 1.9999998e+07
 C_2_(2-7-1)_(3-3-2): 1e+07 X_2_7 + 1e+07 X_3_3 - B_2_3 <= 1.9999998e+07
 C_2_(2-7-2)_(3-3-3): 1e+07 X_2_7 + 1e+07 X_3_3 - B_2_3 <= 1.9999998e+07
 C_2_(2-7-3)_(3-4-1): 1e+07 X_2_7 + 1e+07 X_3_4 - B_2_3 <= 1.9999998e+07
 C_2_(2-7-2)_(3-5-3): 1e+07 X_2_7 + 1e+07 X_3_5 - B_2_3 <= 1.9999998e+07
 C_2_(2-7-3)_(3-5-1): 1e+07 X_2_7 + 1e+07 X_3_5 - B_2_3 <= 1.9999998e+07
 C_2_(2-7-1)_(3-6-2): 1e+07 X_2_7 + 1e+07 X_3_6 - B_2_3 <= 1.9999998e+07
 C_2_(2-7-3)_(3-6-1): 1e+07 X_2_7 + 1e+07 X_3_6 - B_2_3 <= 1.9999998e+07
 C_2_(2-7-1)_(3-7-2): 1e+07 X_2_7 + 1e+07 X_3_7 - B_2_3 <= 1.9999998e+07
 C_2_(2-7-2)_(3-7-3): 1e+07 X_2_7 + 1e+07 X_3_7 - B_2_3 <= 1.9999998e+07
 C_2_(2-7-3)_(3-7-1): 1e+07 X_2_7 + 1e+07 X_3_7 - B_2_3 <= 1.9999998e+07
Bounds
Binaries
 X_1_1 X_1_2 X_1_3 X_2_1 X_2_2 X_2_3 X_2_4 X_2_5 X_2_6 X_2_7 X_3_1 X_3_2
 X_3_3 X_3_4 X_3_5 X_3_6 X_3_7
End
